Running HiGHS 1.4.0 [date: 1970-01-01, git hash: bcf6c0b22]
Copyright (c) 2022 ERGO-Code under MIT licence terms
LP   G0F928_model has 184 rows; 142 cols; 490 nonzeros
Presolving model
Solving the original LP with primal simplex to determine infeasible or unbounded
Using EKK primal simplex solver
  Iteration        Objective     Infeasibilities num(sum)
          0    -3.4015736841e+03 Ph1: 87(740.499); Du: 75(107.342) 0s
        139    -5.7791216644e+03 Pr: 0(0); Du: 2(20) 0s
Using EKK primal simplex solver
  Iteration        Objective     Infeasibilities num(sum)
        139    -5.7791209463e+03 Pr: 0(0); Du: 2(20) 0s
        140    -5.3131456826e+03 Pr: 0(0); Du: 1(10) 0s
Model   status      : Unbounded
Simplex   iterations: 140
Objective value     : -5.3131456826e+03
HiGHS run time      :          0.00
